107	22	4	40	
12	9	10	12

0	0	0	0	0	0	4	1	2	3	4
1	5	0	0	0	4	1	8
2	0	0	6	0	1	2	10	20
3	10	0	0	0	4	1	5
4	2	0	0	0	4	1	6
5	0	0	0	8	2	2	9	17
6	0	0	0	4	10	1	7
7	0	0	2	0	5	1	12
8	0	7	0	0	8	1	9
9	0	0	0	4	6	1	11
10	0	0	4	0	6	1	13
11	0	0	10	0	4	1	20
12	0	0	0	1	2	1	15
13	5	0	0	0	6	1	14
14	0	5	0	0	2	1	16
15	9	0	0	0	7	1	19
16	0	0	0	5	10	1	18
17	0	0	0	10	9	1	21
18	0	0	0	7	4	1	21
19	0	0	0	6	6	1	21
20	0	0	6	0	7	1	21
21	0	0	0	0	0	0
